p cnf 26 65
a 7 23 0
e 1 2 3 4 5 6 8 9 10 11 12 13 14 15 16 17 18 19 20 21 22 24 25 26 0
4 2 0
4 3 0
-2 -3 -4 0
5 1 0
5 4 0
-1 -4 -5 0
-2 3 -6 0
2 -3 -6 0
-2 -3 6 0
2 3 6 0
7 -5 0
7 -6 0
5 6 -7 0
11 9 0
11 -10 0
-9 10 -11 0
12 8 0
12 11 0
-8 -11 -12 0
13 12 0
13 8 0
-12 -8 -13 0
14 -7 0
14 -13 0
7 13 -14 0
-1 -15 -16 0
1 15 -16 0
-1 15 16 0
1 -15 16 0
1 2 -17 0
-1 -2 -17 0
1 -2 17 0
-1 2 17 0
18 -17 0
18 -9 0
17 9 -18 0
-19 -16 0
-19 -18 0
16 18 19 0
14 19 -20 0
-14 -19 -20 0
14 -19 20 0
-14 19 20 0
-21 -8 0
-21 8 0
-21 -12 -22 0
21 12 -22 0
-21 12 22 0
21 -12 22 0
-24 -11 0
-24 23 0
11 -23 24 0
25 22 0
25 -24 0
-22 24 -25 0
-26 20 0
-26 -25 0
-20 25 26 0
23 -22 -2 -11 -3 0
-26 10 -24 -22 -20 -2 5 19 0
5 24 -3 -25 21 7 0
14 -18 -4 -19 0
-9 -10 -1 -14 -19 0
-21 -14 1 -4 -24 18 0
26 0
